jobs  (incl. supersource/sink ):	102
RESOURCES
- renewable                 : 2 R
- nonrenewable              : 4 N
- doubly constrained        : 0 D
************************************************************************
PRECEDENCE RELATIONS:
jobnr.    #modes  #successors   successors
1	1	30		2 3 4 5 6 7 8 9 10 11 12 13 14 15 16 17 18 21 23 24 25 27 29 31 32 35 38 39 45 51 
2	9	16		95 72 64 61 55 50 49 48 46 42 41 37 34 28 20 19 
3	9	24		100 98 74 73 72 71 70 69 68 67 64 63 61 60 56 52 49 48 47 43 42 40 33 30 
4	9	17		100 74 72 69 64 59 54 52 49 48 46 43 42 40 34 30 28 
5	9	15		100 97 74 71 60 57 54 53 52 49 47 44 42 28 22 
6	9	18		99 97 94 88 73 72 70 69 68 67 63 59 57 56 49 48 42 30 
7	9	15		100 99 98 97 72 71 68 67 64 62 61 59 41 30 26 
8	9	19		100 98 96 95 89 86 72 70 68 67 63 60 59 56 48 46 43 41 33 
9	9	18		101 100 98 97 94 90 72 71 70 68 67 62 59 58 57 55 44 26 
10	9	17		100 99 98 96 95 89 73 72 70 69 68 67 63 61 48 43 33 
11	9	11		74 68 67 55 52 49 48 43 42 34 30 
12	9	11		100 99 90 68 67 64 57 55 42 34 26 
13	9	13		99 96 93 92 90 73 72 70 68 59 36 34 33 
14	9	18		101 98 97 96 95 94 93 87 79 73 70 69 68 61 60 47 46 43 
15	9	15		100 98 95 93 92 87 71 69 68 63 62 52 46 44 43 
16	9	21		101 100 99 98 96 95 94 92 91 89 88 87 74 71 68 67 66 62 60 56 55 
17	9	12		101 100 99 91 73 69 67 57 56 46 44 34 
18	9	19		100 99 93 92 91 88 87 79 77 72 71 70 67 66 65 63 62 54 46 
19	9	14		101 99 97 93 89 87 85 74 71 69 67 65 57 43 
20	9	18		100 97 96 94 93 91 90 88 87 85 84 79 73 70 68 67 66 44 
21	9	17		97 95 94 93 90 89 88 87 82 77 73 71 65 64 63 62 58 
22	9	10		98 95 94 87 82 58 55 48 46 43 
23	9	14		101 99 97 96 95 89 86 82 79 67 66 65 61 41 
24	9	14		98 97 95 94 91 87 85 84 83 80 69 66 64 41 
25	9	10		99 89 82 79 73 67 65 59 46 43 
26	9	12		96 95 89 87 86 84 80 69 66 65 63 48 
27	9	11		96 88 87 86 83 79 71 68 66 65 46 
28	9	14		98 96 94 91 87 86 79 78 76 70 68 67 65 63 
29	9	11		96 94 93 88 86 83 79 77 69 66 46 
30	9	14		101 96 95 92 90 87 85 83 82 79 77 76 65 58 
31	9	10		98 91 88 86 85 84 76 67 60 56 
32	9	12		99 93 92 91 87 85 83 82 71 66 65 59 
33	9	10		97 94 87 83 82 81 66 65 62 57 
34	9	12		97 94 89 88 87 86 83 81 77 76 66 65 
35	9	11		101 94 90 83 82 81 79 78 77 75 67 
36	9	9		98 95 94 81 79 78 77 67 65 
37	9	9		97 96 93 90 89 86 79 76 65 
38	9	9		98 94 92 85 83 81 77 75 67 
39	9	8		98 92 90 88 84 77 72 70 
40	9	5		94 83 76 57 55 
41	9	9		93 92 90 88 81 78 77 76 75 
42	9	6		89 80 79 75 66 62 
43	9	7		91 88 84 83 81 80 66 
44	9	7		89 86 82 80 78 76 65 
45	9	7		99 98 87 82 79 77 65 
46	9	6		90 85 84 81 80 76 
47	9	6		91 89 84 81 76 75 
48	9	5		93 92 91 79 75 
49	9	5		81 80 78 77 75 
50	9	5		92 82 77 76 75 
51	9	5		96 92 79 77 75 
52	9	4		99 79 76 66 
53	9	2		65 62 
54	9	4		95 89 82 81 
55	9	3		80 77 65 
56	9	3		83 79 65 
57	9	3		79 77 75 
58	9	3		81 80 78 
59	9	3		78 77 75 
60	9	3		82 81 80 
61	9	3		85 81 75 
62	9	2		84 76 
63	9	2		85 83 
64	9	2		79 78 
65	9	1		75 
66	9	1		78 
67	9	1		80 
68	9	1		77 
69	9	1		82 
70	9	1		75 
71	9	1		76 
72	9	1		76 
73	9	1		86 
74	9	1		86 
75	9	1		102 
76	9	1		102 
77	9	1		102 
78	9	1		102 
79	9	1		102 
80	9	1		102 
81	9	1		102 
82	9	1		102 
83	9	1		102 
84	9	1		102 
85	9	1		102 
86	9	1		102 
87	9	1		102 
88	9	1		102 
89	9	1		102 
90	9	1		102 
91	9	1		102 
92	9	1		102 
93	9	1		102 
94	9	1		102 
95	9	1		102 
96	9	1		102 
97	9	1		102 
98	9	1		102 
99	9	1		102 
100	9	1		102 
101	9	1		102 
102	1	0		
************************************************************************
REQUESTS/DURATIONS
jobnr.	mode	dur	R1	R2	N1	N2	N3	N4	
------------------------------------------------------------------------
1	1	0	0	0	0	0	0	0	
2	1	10	4	4	16	26	13	11	
	2	15	4	4	14	25	13	11	
	3	19	4	4	13	24	12	11	
	4	20	4	4	11	24	11	11	
	5	22	4	4	11	23	10	11	
	6	23	4	4	9	23	8	11	
	7	26	4	4	7	23	7	11	
	8	28	4	4	7	22	7	11	
	9	30	4	4	6	22	6	11	
3	1	1	4	3	24	7	21	17	
	2	3	4	3	23	6	19	16	
	3	6	4	3	21	6	17	15	
	4	7	4	3	20	6	14	15	
	5	9	4	2	19	6	12	14	
	6	10	4	2	17	6	11	13	
	7	11	4	2	17	6	10	12	
	8	21	4	1	14	6	5	11	
	9	29	4	1	13	6	5	11	
4	1	1	3	2	25	26	30	29	
	2	6	3	2	25	22	25	29	
	3	7	3	2	23	22	21	29	
	4	13	3	2	19	20	18	29	
	5	15	3	1	19	15	16	29	
	6	16	3	1	16	15	16	29	
	7	19	3	1	15	13	13	29	
	8	25	3	1	14	10	8	29	
	9	29	3	1	11	6	6	29	
5	1	2	4	1	24	23	22	27	
	2	9	3	1	22	21	21	26	
	3	20	3	1	21	21	21	25	
	4	21	3	1	18	21	21	25	
	5	23	2	1	16	19	21	24	
	6	26	2	1	16	19	20	24	
	7	27	2	1	14	18	20	23	
	8	29	1	1	10	17	20	23	
	9	30	1	1	9	17	20	22	
6	1	6	4	5	5	29	30	21	
	2	10	3	4	4	28	29	17	
	3	15	3	4	4	25	29	16	
	4	16	3	4	3	23	29	15	
	5	17	2	4	3	22	29	12	
	6	18	2	4	2	18	29	10	
	7	22	2	4	1	17	29	8	
	8	23	1	4	1	15	29	5	
	9	28	1	4	1	13	29	3	
7	1	2	4	4	24	20	9	20	
	2	3	4	4	23	19	8	19	
	3	6	4	4	22	19	7	18	
	4	7	4	4	22	18	6	17	
	5	9	4	3	21	17	6	16	
	6	11	4	3	20	17	5	15	
	7	13	4	2	20	16	5	14	
	8	15	4	2	20	15	3	14	
	9	22	4	2	19	14	3	13	
8	1	1	4	5	26	16	17	13	
	2	5	3	5	24	15	15	13	
	3	6	3	5	24	15	13	13	
	4	7	3	5	21	15	12	13	
	5	10	2	5	21	14	12	12	
	6	16	2	5	20	14	10	12	
	7	20	2	5	18	13	8	11	
	8	21	2	5	17	13	7	11	
	9	26	2	5	15	13	5	11	
9	1	2	2	4	16	28	25	16	
	2	8	1	4	13	26	25	15	
	3	11	1	4	11	26	24	14	
	4	13	1	4	10	23	24	14	
	5	14	1	4	7	23	23	12	
	6	15	1	4	6	20	22	12	
	7	17	1	4	4	18	21	12	
	8	18	1	4	3	18	21	10	
	9	22	1	4	2	16	20	10	
10	1	5	4	4	24	24	20	10	
	2	6	3	3	23	22	19	10	
	3	7	3	3	22	21	17	10	
	4	8	3	2	20	20	14	10	
	5	14	3	2	20	18	14	10	
	6	16	3	2	19	15	12	10	
	7	18	3	2	17	13	8	10	
	8	22	3	1	17	11	8	10	
	9	30	3	1	16	10	4	10	
11	1	1	2	3	22	24	12	22	
	2	6	1	2	20	21	11	21	
	3	9	1	2	20	20	9	21	
	4	10	1	2	20	18	8	21	
	5	13	1	2	18	18	8	19	
	6	17	1	1	18	15	7	19	
	7	23	1	1	17	14	6	19	
	8	24	1	1	17	12	5	18	
	9	26	1	1	16	11	5	17	
12	1	2	4	4	23	23	24	15	
	2	3	4	3	22	22	23	15	
	3	4	4	3	17	18	23	15	
	4	5	4	3	15	16	22	15	
	5	6	3	2	14	13	22	14	
	6	18	3	2	12	13	22	14	
	7	19	3	2	8	10	21	13	
	8	25	2	2	5	7	20	13	
	9	30	2	2	3	6	20	13	
13	1	9	4	2	12	25	11	22	
	2	10	3	2	11	24	9	21	
	3	11	3	2	11	21	9	19	
	4	14	3	2	11	20	9	19	
	5	20	2	2	10	19	7	17	
	6	24	2	2	10	16	7	16	
	7	26	1	2	10	16	7	15	
	8	27	1	2	9	15	5	13	
	9	28	1	2	9	12	5	13	
14	1	2	3	2	10	25	28	21	
	2	3	2	2	9	24	27	21	
	3	5	2	2	8	22	27	18	
	4	6	2	2	8	21	27	17	
	5	7	2	2	8	18	26	15	
	6	12	2	2	7	18	26	13	
	7	18	2	2	7	15	26	10	
	8	22	2	2	6	15	26	9	
	9	25	2	2	6	13	26	7	
15	1	1	3	4	23	16	11	18	
	2	3	2	4	23	16	11	18	
	3	5	2	4	21	15	11	15	
	4	7	2	4	21	14	11	15	
	5	8	1	4	18	14	11	11	
	6	17	1	3	17	14	10	11	
	7	23	1	3	15	13	10	8	
	8	28	1	3	15	12	10	8	
	9	29	1	3	13	12	10	5	
16	1	2	5	2	18	20	30	11	
	2	10	5	1	17	18	28	10	
	3	11	5	1	16	17	26	9	
	4	15	5	1	16	16	25	8	
	5	18	5	1	16	14	25	7	
	6	19	5	1	15	11	24	7	
	7	23	5	1	15	9	23	5	
	8	24	5	1	14	7	21	4	
	9	25	5	1	14	7	20	4	
17	1	3	3	2	22	17	20	20	
	2	7	3	2	18	17	17	20	
	3	13	3	2	17	17	16	19	
	4	19	3	2	14	17	14	18	
	5	22	3	2	13	17	14	16	
	6	23	3	2	10	17	12	16	
	7	24	3	2	9	17	11	15	
	8	25	3	2	8	17	8	14	
	9	28	3	2	5	17	7	13	
18	1	3	3	4	6	18	25	11	
	2	5	3	4	4	15	23	10	
	3	8	3	4	4	14	20	10	
	4	14	3	4	4	14	19	10	
	5	17	2	4	3	12	19	8	
	6	18	2	3	3	11	16	8	
	7	19	2	3	2	10	14	8	
	8	28	2	3	2	10	14	7	
	9	30	2	3	1	9	13	6	
19	1	1	2	3	27	11	27	27	
	2	8	2	2	25	11	25	27	
	3	11	2	2	22	11	22	24	
	4	14	2	2	21	11	19	22	
	5	18	2	2	20	11	18	18	
	6	22	2	2	17	10	15	17	
	7	23	2	2	15	10	14	14	
	8	25	2	2	14	10	11	12	
	9	27	2	2	12	10	10	10	
20	1	7	2	1	29	30	7	18	
	2	8	2	1	25	27	6	16	
	3	12	2	1	22	27	6	16	
	4	14	2	1	18	24	6	12	
	5	16	2	1	14	23	6	11	
	6	21	2	1	11	23	6	11	
	7	24	2	1	10	20	6	8	
	8	27	2	1	7	19	6	6	
	9	30	2	1	3	19	6	4	
21	1	3	4	3	7	26	16	22	
	2	13	4	2	7	24	14	22	
	3	14	4	2	6	20	14	22	
	4	16	4	2	6	18	13	22	
	5	18	4	2	6	15	12	22	
	6	20	4	2	5	14	12	21	
	7	22	4	2	4	12	12	21	
	8	25	4	2	4	7	11	21	
	9	29	4	2	4	7	10	21	
22	1	2	4	4	19	5	26	22	
	2	4	4	4	18	4	24	20	
	3	6	4	4	16	4	23	20	
	4	7	4	4	15	4	23	17	
	5	13	4	3	13	4	21	16	
	6	18	3	3	12	4	20	14	
	7	20	3	2	10	4	20	14	
	8	21	3	2	8	4	19	11	
	9	30	3	2	7	4	18	11	
23	1	3	4	4	14	25	25	28	
	2	5	4	4	13	22	23	26	
	3	9	4	4	11	20	20	24	
	4	13	4	4	11	20	19	23	
	5	17	4	4	10	16	16	21	
	6	19	3	4	7	14	14	21	
	7	20	3	4	7	10	13	20	
	8	25	3	4	4	7	12	17	
	9	30	3	4	3	4	9	17	
24	1	1	4	3	16	15	21	28	
	2	6	4	3	15	15	20	26	
	3	7	3	3	15	14	18	24	
	4	13	3	2	14	13	16	22	
	5	16	3	2	14	10	14	20	
	6	17	2	2	14	10	14	19	
	7	19	1	2	13	9	12	16	
	8	20	1	1	13	8	10	14	
	9	22	1	1	13	6	8	12	
25	1	1	4	4	22	29	25	15	
	2	3	4	4	21	26	24	14	
	3	4	4	4	19	24	24	14	
	4	9	4	4	19	21	24	14	
	5	17	3	3	18	20	22	13	
	6	19	3	3	17	16	22	13	
	7	22	3	3	16	16	21	12	
	8	24	2	2	14	12	20	12	
	9	26	2	2	13	10	20	12	
26	1	1	1	3	15	28	28	17	
	2	3	1	3	13	23	26	16	
	3	8	1	3	11	22	24	15	
	4	12	1	3	10	17	24	13	
	5	20	1	3	7	14	22	12	
	6	21	1	3	6	13	20	10	
	7	22	1	3	4	10	19	7	
	8	23	1	3	3	6	18	7	
	9	24	1	3	3	4	18	4	
27	1	3	4	3	13	30	15	29	
	2	8	4	2	13	29	14	27	
	3	10	4	2	13	29	13	26	
	4	11	4	2	13	29	12	25	
	5	13	3	2	13	29	11	23	
	6	17	3	1	13	29	10	22	
	7	21	3	1	13	29	8	21	
	8	23	3	1	13	29	8	20	
	9	26	3	1	13	29	7	20	
28	1	4	3	4	24	10	8	27	
	2	5	2	4	21	9	7	25	
	3	6	2	4	17	9	7	24	
	4	12	2	4	14	8	7	20	
	5	13	2	4	11	8	7	19	
	6	16	2	4	11	8	6	17	
	7	23	2	4	9	7	6	15	
	8	25	2	4	4	6	6	14	
	9	27	2	4	3	6	6	11	
29	1	1	3	2	22	27	13	9	
	2	6	2	2	20	24	13	8	
	3	7	2	2	20	21	13	6	
	4	8	2	2	18	18	13	6	
	5	9	2	2	18	16	12	5	
	6	14	2	2	17	14	12	5	
	7	18	2	2	15	11	11	3	
	8	26	2	2	14	9	11	3	
	9	29	2	2	13	6	11	2	
30	1	1	3	4	18	25	29	29	
	2	5	3	3	16	25	28	24	
	3	7	3	3	13	25	27	22	
	4	8	3	3	12	25	25	18	
	5	11	3	3	9	25	25	16	
	6	12	2	3	9	25	24	16	
	7	13	2	3	7	25	22	11	
	8	14	2	3	5	25	22	8	
	9	27	2	3	3	25	21	7	
31	1	2	1	5	23	29	19	20	
	2	3	1	4	21	28	19	20	
	3	7	1	4	20	28	19	19	
	4	10	1	3	17	27	19	17	
	5	16	1	3	15	27	19	17	
	6	17	1	3	14	27	19	16	
	7	19	1	3	12	27	19	15	
	8	21	1	2	10	26	19	14	
	9	29	1	2	8	26	19	14	
32	1	1	5	2	19	21	23	30	
	2	4	5	2	18	18	23	29	
	3	5	5	2	18	17	21	29	
	4	10	5	2	17	16	20	29	
	5	13	5	1	16	14	18	29	
	6	14	5	1	14	14	18	29	
	7	15	5	1	13	11	16	29	
	8	17	5	1	12	10	16	29	
	9	20	5	1	12	9	14	29	
33	1	1	4	5	28	16	4	18	
	2	3	4	4	27	16	3	15	
	3	7	4	4	24	16	3	15	
	4	8	4	4	22	16	3	13	
	5	15	4	4	20	16	3	11	
	6	19	3	3	20	16	3	11	
	7	22	3	3	18	16	3	9	
	8	25	3	3	16	16	3	8	
	9	29	3	3	13	16	3	8	
34	1	2	3	5	28	24	25	16	
	2	3	3	4	28	24	24	15	
	3	7	3	4	27	23	22	14	
	4	21	2	3	27	22	18	12	
	5	22	2	2	27	19	17	12	
	6	23	2	2	26	18	13	11	
	7	27	2	2	25	18	11	10	
	8	28	1	1	25	17	9	8	
	9	29	1	1	25	16	7	8	
35	1	4	5	5	23	29	12	23	
	2	7	4	4	23	29	11	22	
	3	13	4	4	22	29	11	22	
	4	18	3	4	19	29	11	22	
	5	19	3	3	17	28	11	22	
	6	20	2	3	16	28	11	22	
	7	21	2	3	15	28	11	22	
	8	24	1	2	13	28	11	22	
	9	26	1	2	12	28	11	22	
36	1	1	2	3	22	14	29	21	
	2	5	2	2	18	13	27	18	
	3	8	2	2	18	13	26	16	
	4	10	2	2	16	13	26	13	
	5	17	2	2	14	12	25	11	
	6	18	2	2	12	11	24	10	
	7	25	2	2	9	11	22	6	
	8	27	2	2	6	11	22	5	
	9	29	2	2	6	10	21	1	
37	1	1	3	4	21	10	4	23	
	2	3	3	3	21	9	4	22	
	3	7	3	3	20	9	4	20	
	4	10	2	3	19	7	4	17	
	5	13	2	2	18	7	3	15	
	6	16	2	2	17	5	3	15	
	7	19	1	2	16	3	2	14	
	8	24	1	2	16	2	2	11	
	9	30	1	2	15	2	2	9	
38	1	3	2	4	17	22	30	27	
	2	4	1	4	16	21	24	23	
	3	7	1	4	15	21	22	19	
	4	10	1	4	15	21	20	16	
	5	15	1	3	14	21	17	15	
	6	16	1	3	13	20	15	12	
	7	20	1	2	12	20	11	11	
	8	25	1	2	11	20	8	8	
	9	27	1	2	11	20	6	4	
39	1	3	3	2	26	22	19	26	
	2	16	3	2	24	21	18	25	
	3	18	3	2	22	21	16	24	
	4	21	3	2	19	21	14	24	
	5	22	2	2	17	21	13	23	
	6	25	2	2	16	20	12	21	
	7	27	2	2	15	20	11	20	
	8	28	2	2	13	20	8	19	
	9	29	2	2	12	20	7	18	
40	1	1	3	3	22	24	30	12	
	2	2	3	2	19	20	24	10	
	3	13	3	2	16	20	24	9	
	4	17	3	2	13	16	18	8	
	5	22	3	1	12	14	16	7	
	6	23	3	1	9	11	14	6	
	7	25	3	1	7	10	10	5	
	8	26	3	1	7	6	8	5	
	9	27	3	1	5	5	7	4	
41	1	3	1	1	20	11	15	27	
	2	7	1	1	20	11	14	24	
	3	13	1	1	20	11	14	23	
	4	15	1	1	20	11	13	22	
	5	16	1	1	20	11	12	19	
	6	21	1	1	20	11	12	16	
	7	23	1	1	20	11	10	15	
	8	27	1	1	20	11	10	14	
	9	30	1	1	20	11	9	10	
42	1	4	3	1	27	28	21	29	
	2	5	2	1	25	25	19	29	
	3	6	2	1	25	25	19	28	
	4	8	2	1	25	21	16	27	
	5	15	2	1	24	21	16	27	
	6	16	2	1	23	18	13	26	
	7	18	2	1	23	15	13	26	
	8	21	2	1	22	14	12	25	
	9	27	2	1	21	13	9	25	
43	1	4	5	4	18	11	20	7	
	2	10	4	3	14	9	19	6	
	3	13	4	3	13	8	18	6	
	4	14	4	3	11	6	16	6	
	5	16	3	3	11	6	12	6	
	6	19	3	2	10	4	11	5	
	7	24	3	2	8	4	10	5	
	8	29	3	2	7	3	8	5	
	9	30	3	2	5	1	6	5	
44	1	1	5	1	5	17	30	20	
	2	3	5	1	5	16	24	19	
	3	4	5	1	5	16	22	17	
	4	9	5	1	5	16	21	16	
	5	17	5	1	4	16	18	15	
	6	18	5	1	4	16	12	15	
	7	22	5	1	3	16	9	14	
	8	23	5	1	3	16	7	13	
	9	27	5	1	3	16	5	12	
45	1	2	1	3	12	18	14	20	
	2	5	1	2	11	16	12	19	
	3	9	1	2	10	15	11	18	
	4	12	1	2	9	15	9	16	
	5	13	1	2	7	13	8	16	
	6	15	1	2	7	13	7	14	
	7	16	1	2	6	12	6	14	
	8	20	1	2	4	10	3	13	
	9	27	1	2	4	10	3	12	
46	1	4	2	1	21	15	13	23	
	2	14	2	1	19	14	13	22	
	3	16	2	1	18	13	11	19	
	4	17	2	1	15	11	11	18	
	5	18	2	1	13	11	9	17	
	6	23	2	1	11	8	8	16	
	7	25	2	1	10	8	7	14	
	8	27	2	1	6	5	5	12	
	9	28	2	1	4	5	4	11	
47	1	2	4	4	4	20	26	2	
	2	4	4	3	4	19	23	2	
	3	5	4	3	4	15	20	2	
	4	9	4	3	4	14	20	2	
	5	10	3	3	3	10	17	2	
	6	17	3	2	3	9	15	2	
	7	24	3	2	3	7	15	2	
	8	25	3	2	2	6	11	2	
	9	28	3	2	2	2	11	2	
48	1	4	3	3	1	28	8	24	
	2	5	3	2	1	28	8	23	
	3	11	3	2	1	26	8	22	
	4	15	3	2	1	23	8	20	
	5	16	3	2	1	22	8	18	
	6	19	2	2	1	19	8	18	
	7	20	2	2	1	17	8	15	
	8	21	2	2	1	15	8	14	
	9	22	2	2	1	13	8	12	
49	1	4	5	3	10	14	18	6	
	2	5	4	2	9	13	17	5	
	3	6	4	2	7	12	17	5	
	4	7	4	2	6	12	16	4	
	5	10	4	1	5	12	15	4	
	6	11	4	1	5	11	12	4	
	7	18	4	1	3	10	11	4	
	8	20	4	1	3	10	11	3	
	9	30	4	1	1	10	10	3	
50	1	1	5	4	13	24	23	15	
	2	8	4	4	12	21	22	14	
	3	11	4	4	11	19	21	14	
	4	15	4	4	10	17	21	14	
	5	19	4	4	9	14	20	13	
	6	21	3	4	9	11	20	13	
	7	23	3	4	8	7	19	13	
	8	28	3	4	6	6	19	12	
	9	29	3	4	6	4	18	12	
51	1	3	1	4	7	13	25	19	
	2	4	1	4	6	13	21	18	
	3	17	1	4	5	11	20	15	
	4	20	1	3	4	10	19	15	
	5	22	1	3	4	8	17	12	
	6	23	1	3	4	7	13	8	
	7	27	1	2	2	7	11	6	
	8	29	1	2	2	5	11	4	
	9	30	1	2	1	4	7	2	
52	1	3	5	4	25	27	15	20	
	2	5	4	4	24	25	14	17	
	3	6	4	4	24	23	13	17	
	4	10	4	3	24	20	11	15	
	5	11	4	3	24	20	10	14	
	6	12	4	3	23	17	10	11	
	7	18	4	3	23	17	8	10	
	8	24	4	2	23	14	7	8	
	9	29	4	2	23	14	7	6	
53	1	5	3	3	25	26	26	20	
	2	6	3	3	23	24	26	18	
	3	8	3	3	20	24	23	18	
	4	9	3	3	18	24	23	17	
	5	10	2	3	17	23	21	14	
	6	15	2	3	15	22	20	13	
	7	19	1	3	12	22	17	12	
	8	22	1	3	11	20	16	11	
	9	26	1	3	9	20	14	11	
54	1	2	1	5	25	16	26	14	
	2	3	1	4	25	16	25	13	
	3	4	1	4	25	16	23	13	
	4	5	1	4	25	15	22	13	
	5	6	1	3	25	15	20	12	
	6	7	1	3	25	15	19	12	
	7	8	1	3	25	14	17	11	
	8	14	1	2	25	14	17	11	
	9	22	1	2	25	14	15	11	
55	1	2	4	2	24	27	28	16	
	2	6	4	1	21	24	24	15	
	3	9	4	1	21	24	24	14	
	4	12	4	1	19	23	22	14	
	5	13	4	1	18	22	21	13	
	6	15	4	1	18	19	19	12	
	7	23	4	1	17	19	17	10	
	8	29	4	1	16	18	16	10	
	9	30	4	1	15	17	13	8	
56	1	4	5	2	25	30	27	21	
	2	5	4	2	24	26	25	17	
	3	6	4	2	24	23	24	16	
	4	10	4	2	23	22	24	14	
	5	12	3	2	23	20	21	13	
	6	19	3	1	22	17	20	10	
	7	24	3	1	21	15	17	10	
	8	27	3	1	21	13	17	8	
	9	28	3	1	21	10	15	5	
57	1	2	4	5	27	18	28	25	
	2	3	3	4	25	17	27	24	
	3	8	3	4	22	14	27	22	
	4	14	2	4	20	13	27	20	
	5	22	2	4	19	10	27	17	
	6	24	2	4	15	9	26	15	
	7	25	2	4	14	8	26	12	
	8	26	1	4	11	5	26	12	
	9	27	1	4	11	4	26	9	
58	1	1	5	1	11	14	24	20	
	2	2	4	1	10	14	24	20	
	3	5	4	1	10	14	20	18	
	4	6	4	1	10	14	20	17	
	5	18	4	1	9	14	17	16	
	6	20	4	1	9	13	16	16	
	7	22	4	1	9	13	14	15	
	8	28	4	1	8	13	11	14	
	9	29	4	1	8	13	10	13	
59	1	1	3	3	10	28	20	14	
	2	4	2	3	9	28	18	14	
	3	6	2	3	8	28	16	12	
	4	8	2	3	8	28	15	11	
	5	9	2	2	7	28	11	9	
	6	10	2	2	6	28	11	6	
	7	11	2	1	6	28	8	5	
	8	20	2	1	5	28	6	4	
	9	27	2	1	5	28	5	2	
60	1	1	5	3	30	26	28	27	
	2	2	4	3	28	24	26	26	
	3	4	4	3	27	24	25	23	
	4	11	4	3	26	23	24	21	
	5	13	4	2	26	20	22	21	
	6	14	3	2	25	19	21	20	
	7	17	3	2	25	18	19	17	
	8	20	3	2	23	16	19	15	
	9	22	3	2	23	16	18	14	
61	1	1	5	5	27	24	11	12	
	2	7	5	5	27	22	11	11	
	3	13	5	5	25	22	9	11	
	4	15	5	5	24	22	9	11	
	5	16	5	5	24	21	8	10	
	6	18	5	5	22	20	8	9	
	7	19	5	5	21	19	6	9	
	8	20	5	5	21	18	5	9	
	9	23	5	5	20	18	5	8	
62	1	3	3	4	27	22	19	11	
	2	5	2	4	27	20	19	10	
	3	16	2	3	27	15	17	9	
	4	17	2	3	27	13	17	9	
	5	23	1	3	27	12	16	8	
	6	27	1	2	26	8	15	6	
	7	28	1	2	26	5	15	5	
	8	29	1	1	26	3	13	3	
	9	30	1	1	26	1	13	3	
63	1	1	5	1	5	8	21	28	
	2	9	4	1	5	7	19	25	
	3	10	4	1	5	7	17	21	
	4	12	4	1	5	6	15	19	
	5	13	4	1	4	6	14	15	
	6	15	4	1	4	5	13	14	
	7	16	4	1	4	5	12	9	
	8	22	4	1	4	4	9	7	
	9	25	4	1	4	4	9	6	
64	1	4	2	5	28	25	16	25	
	2	8	2	5	25	24	16	24	
	3	11	2	5	22	23	15	24	
	4	12	2	5	18	23	14	23	
	5	15	2	5	16	23	14	21	
	6	21	2	5	11	22	14	21	
	7	23	2	5	7	22	13	19	
	8	24	2	5	5	21	13	18	
	9	27	2	5	2	21	12	18	
65	1	2	2	1	15	19	30	14	
	2	12	2	1	13	18	29	14	
	3	13	2	1	12	17	29	12	
	4	19	2	1	10	16	29	11	
	5	20	2	1	8	16	28	11	
	6	22	2	1	8	15	28	11	
	7	27	2	1	7	15	28	9	
	8	28	2	1	5	15	28	8	
	9	30	2	1	4	14	28	8	
66	1	4	4	1	30	18	21	19	
	2	6	4	1	27	17	18	18	
	3	7	4	1	25	15	17	17	
	4	12	4	1	24	11	17	17	
	5	14	4	1	21	10	14	16	
	6	16	3	1	20	10	13	15	
	7	23	3	1	18	6	12	15	
	8	25	3	1	15	6	11	13	
	9	26	3	1	15	4	10	13	
67	1	1	3	1	19	23	23	21	
	2	2	2	1	17	22	22	20	
	3	4	2	1	16	22	21	20	
	4	5	2	1	16	22	19	19	
	5	8	2	1	14	21	19	19	
	6	15	2	1	13	20	17	18	
	7	22	2	1	12	20	17	18	
	8	26	2	1	11	20	16	17	
	9	27	2	1	10	19	15	17	
68	1	2	5	4	26	21	25	4	
	2	7	4	3	26	19	24	4	
	3	8	4	3	25	18	21	4	
	4	9	3	3	25	17	19	4	
	5	13	2	3	23	17	19	3	
	6	19	2	2	23	16	16	3	
	7	28	2	2	22	15	13	3	
	8	29	1	2	22	15	13	3	
	9	30	1	2	21	14	10	3	
69	1	9	1	4	29	24	17	27	
	2	10	1	4	29	23	16	27	
	3	11	1	4	29	23	16	24	
	4	13	1	4	29	22	16	20	
	5	15	1	4	29	22	16	18	
	6	18	1	4	29	21	16	12	
	7	21	1	4	29	20	16	9	
	8	24	1	4	29	20	16	8	
	9	25	1	4	29	19	16	6	
70	1	1	5	2	12	20	18	24	
	2	2	5	2	12	19	18	21	
	3	4	5	2	10	15	17	21	
	4	10	5	2	9	14	17	19	
	5	16	5	2	7	13	16	15	
	6	18	5	2	7	10	16	14	
	7	20	5	2	5	8	15	9	
	8	29	5	2	4	8	15	7	
	9	30	5	2	3	6	15	5	
71	1	1	5	4	25	19	14	16	
	2	2	4	4	23	18	14	14	
	3	3	3	4	22	15	14	12	
	4	4	3	3	22	13	14	10	
	5	5	3	3	18	12	14	10	
	6	8	2	3	17	10	13	7	
	7	9	2	3	15	8	13	5	
	8	22	1	2	13	4	13	5	
	9	27	1	2	13	3	13	4	
72	1	2	2	3	25	20	26	18	
	2	9	2	3	21	19	22	17	
	3	14	2	3	19	16	21	15	
	4	15	2	3	18	16	18	12	
	5	16	2	2	13	13	14	9	
	6	17	2	2	10	13	11	9	
	7	18	2	2	10	9	10	6	
	8	23	2	1	5	7	7	4	
	9	28	2	1	3	7	6	3	
73	1	1	5	2	22	12	19	27	
	2	3	4	2	21	12	18	27	
	3	10	4	2	17	12	18	27	
	4	11	4	2	15	12	18	27	
	5	16	3	2	12	12	17	27	
	6	17	3	2	11	12	17	27	
	7	21	3	2	9	12	16	27	
	8	22	3	2	5	12	16	27	
	9	24	3	2	2	12	16	27	
74	1	2	5	3	11	28	7	8	
	2	5	5	2	9	22	7	6	
	3	10	5	2	9	21	6	6	
	4	11	5	2	9	18	5	4	
	5	12	5	2	8	16	5	4	
	6	16	5	2	7	13	5	3	
	7	17	5	2	7	10	4	2	
	8	26	5	2	6	7	4	1	
	9	30	5	2	6	4	3	1	
75	1	1	3	3	5	28	15	29	
	2	4	3	3	4	26	14	29	
	3	8	3	3	4	26	14	28	
	4	18	3	3	4	26	12	26	
	5	20	3	3	4	25	11	26	
	6	21	3	3	3	24	11	25	
	7	22	3	3	3	24	10	25	
	8	26	3	3	3	24	8	23	
	9	30	3	3	3	23	8	23	
76	1	3	3	2	28	23	27	29	
	2	5	2	2	27	22	26	27	
	3	8	2	2	27	21	24	26	
	4	9	2	2	27	19	20	25	
	5	12	2	2	26	18	20	24	
	6	14	2	2	26	16	18	22	
	7	18	2	2	26	15	15	19	
	8	19	2	2	25	14	12	18	
	9	22	2	2	25	14	10	17	
77	1	1	3	4	23	29	15	15	
	2	2	3	3	23	28	13	15	
	3	6	3	3	23	27	12	13	
	4	10	3	3	23	26	11	10	
	5	17	3	3	23	26	8	10	
	6	24	3	2	23	25	6	8	
	7	25	3	2	23	25	6	6	
	8	26	3	2	23	25	3	5	
	9	29	3	2	23	24	1	3	
78	1	6	3	4	15	7	26	19	
	2	8	3	3	14	7	21	18	
	3	12	3	3	14	7	21	17	
	4	14	3	3	14	6	17	16	
	5	18	3	2	14	6	15	14	
	6	21	3	2	14	6	14	13	
	7	26	3	2	14	5	12	12	
	8	28	3	2	14	5	8	11	
	9	29	3	2	14	5	5	9	
79	1	2	4	3	26	8	23	20	
	2	12	3	3	25	8	23	19	
	3	13	3	3	23	6	21	19	
	4	16	3	3	23	5	19	17	
	5	20	3	2	20	5	16	16	
	6	21	3	2	20	5	13	15	
	7	24	3	2	19	4	13	15	
	8	29	3	1	17	3	11	13	
	9	30	3	1	15	2	8	13	
80	1	2	2	5	24	17	30	14	
	2	3	2	4	23	16	29	13	
	3	6	2	4	21	16	29	13	
	4	12	2	4	20	16	28	13	
	5	15	2	4	20	15	28	13	
	6	16	2	3	18	14	28	13	
	7	21	2	3	18	14	28	12	
	8	27	2	3	17	13	27	13	
	9	30	2	3	16	13	27	13	
81	1	1	4	4	28	22	12	27	
	2	2	4	4	26	21	11	25	
	3	13	4	4	26	19	10	19	
	4	20	4	4	25	18	10	17	
	5	24	4	4	25	18	9	13	
	6	25	4	4	24	16	8	12	
	7	26	4	4	24	15	8	10	
	8	27	4	4	23	14	8	6	
	9	28	4	4	22	14	7	3	
82	1	2	3	3	27	27	23	6	
	2	6	2	3	27	24	21	5	
	3	8	2	3	24	23	20	5	
	4	9	2	3	23	21	19	5	
	5	15	2	2	20	20	18	5	
	6	21	2	2	20	17	18	5	
	7	25	2	2	19	17	17	5	
	8	27	2	2	17	13	16	5	
	9	28	2	2	14	12	15	5	
83	1	4	5	4	22	19	15	13	
	2	6	4	3	20	17	15	13	
	3	7	4	3	19	17	15	12	
	4	12	4	3	19	17	15	11	
	5	15	4	2	17	16	14	11	
	6	17	4	2	16	16	14	11	
	7	20	4	2	15	15	13	10	
	8	28	4	2	13	14	13	10	
	9	29	4	2	13	14	13	9	
84	1	7	5	5	6	24	17	18	
	2	11	4	4	6	22	17	16	
	3	14	4	4	5	20	17	13	
	4	15	3	4	5	20	17	12	
	5	16	3	4	4	19	17	10	
	6	17	3	4	4	17	17	9	
	7	23	3	4	3	16	17	7	
	8	27	2	4	3	14	17	3	
	9	29	2	4	2	14	17	2	
85	1	1	5	1	11	20	14	21	
	2	2	4	1	9	20	14	19	
	3	3	4	1	8	18	14	18	
	4	7	4	1	8	17	13	17	
	5	8	4	1	7	16	13	15	
	6	18	4	1	6	16	12	14	
	7	21	4	1	6	14	12	13	
	8	22	4	1	4	13	11	13	
	9	24	4	1	4	13	11	12	
86	1	11	3	3	20	24	23	28	
	2	12	3	3	17	21	21	28	
	3	13	3	3	16	20	19	28	
	4	17	3	3	13	17	19	27	
	5	18	3	3	12	14	15	27	
	6	19	2	3	9	11	12	27	
	7	22	2	3	6	10	10	26	
	8	23	2	3	6	7	9	26	
	9	26	2	3	3	6	7	26	
87	1	1	5	4	21	14	23	25	
	2	4	5	3	19	13	20	22	
	3	5	5	3	17	11	18	20	
	4	6	5	3	15	9	18	20	
	5	11	5	2	14	9	16	18	
	6	14	5	2	10	7	13	14	
	7	23	5	2	8	6	11	12	
	8	28	5	1	6	5	11	11	
	9	29	5	1	4	3	8	9	
88	1	4	5	4	29	24	24	22	
	2	7	4	4	29	21	23	18	
	3	10	4	4	29	20	23	15	
	4	16	3	4	29	16	23	13	
	5	17	2	3	28	15	23	12	
	6	19	2	3	28	11	22	9	
	7	22	2	3	28	10	22	7	
	8	23	1	2	28	8	22	7	
	9	26	1	2	28	5	22	3	
89	1	1	3	4	6	22	26	8	
	2	12	3	3	6	21	25	7	
	3	15	3	3	6	18	25	7	
	4	17	3	3	5	16	25	6	
	5	21	3	3	4	13	25	6	
	6	22	3	3	4	10	25	5	
	7	24	3	3	3	7	25	5	
	8	27	3	3	3	6	25	4	
	9	29	3	3	3	2	25	3	
90	1	1	5	5	10	17	13	18	
	2	2	5	4	10	17	11	16	
	3	3	5	4	9	17	11	14	
	4	17	5	4	8	17	11	12	
	5	19	5	4	7	17	10	10	
	6	20	5	4	7	17	9	7	
	7	26	5	4	6	17	8	6	
	8	27	5	4	4	17	8	5	
	9	29	5	4	4	17	7	3	
91	1	5	4	5	13	17	25	17	
	2	6	4	4	11	15	25	16	
	3	7	4	4	11	14	21	15	
	4	12	4	4	8	11	21	14	
	5	18	4	4	6	10	19	11	
	6	20	4	4	6	9	17	10	
	7	21	4	4	4	8	15	8	
	8	24	4	4	3	6	11	8	
	9	30	4	4	2	5	10	7	
92	1	2	4	2	21	14	19	21	
	2	7	3	2	17	13	16	21	
	3	12	3	2	16	13	16	21	
	4	16	3	2	15	12	14	21	
	5	23	2	2	11	12	12	21	
	6	26	2	2	9	12	12	21	
	7	27	2	2	7	11	9	21	
	8	28	2	2	7	11	7	21	
	9	29	2	2	3	11	6	21	
93	1	5	2	4	15	25	9	16	
	2	6	2	3	14	23	9	14	
	3	7	2	3	13	23	9	14	
	4	8	2	3	13	23	9	13	
	5	11	2	3	11	21	9	12	
	6	15	2	3	11	21	9	11	
	7	16	2	3	10	21	9	10	
	8	20	2	3	9	20	9	10	
	9	29	2	3	9	19	9	9	
94	1	6	3	5	17	24	24	11	
	2	7	2	5	13	24	20	9	
	3	8	2	5	13	23	19	9	
	4	10	2	5	12	21	16	8	
	5	13	2	5	10	19	16	7	
	6	18	2	5	7	18	13	7	
	7	19	2	5	7	15	10	6	
	8	23	2	5	6	14	8	6	
	9	29	2	5	4	14	7	5	
95	1	2	4	4	23	15	26	10	
	2	3	3	4	19	14	23	9	
	3	6	3	3	19	13	20	7	
	4	7	2	3	16	12	16	7	
	5	8	2	3	14	10	13	6	
	6	11	2	2	10	9	13	6	
	7	13	1	2	9	9	8	4	
	8	22	1	1	6	7	7	3	
	9	24	1	1	5	6	1	3	
96	1	10	4	1	6	2	24	14	
	2	13	4	1	5	1	22	14	
	3	17	4	1	5	1	21	13	
	4	18	4	1	4	1	18	12	
	5	20	4	1	4	1	18	10	
	6	22	3	1	4	1	15	9	
	7	25	3	1	4	1	12	8	
	8	27	3	1	3	1	12	7	
	9	28	3	1	3	1	9	6	
97	1	1	2	3	28	15	13	13	
	2	4	2	3	27	14	13	13	
	3	6	2	3	24	14	13	12	
	4	7	2	3	23	14	13	11	
	5	18	2	2	23	14	13	11	
	6	25	1	2	20	14	12	11	
	7	26	1	2	19	14	12	10	
	8	28	1	2	18	14	12	10	
	9	29	1	2	16	14	12	9	
98	1	5	4	3	30	19	12	28	
	2	6	3	3	28	18	10	27	
	3	7	3	3	28	17	10	26	
	4	9	3	3	26	17	9	26	
	5	14	3	3	26	14	9	25	
	6	22	3	3	26	13	9	23	
	7	25	3	3	25	12	8	23	
	8	26	3	3	23	10	7	22	
	9	27	3	3	23	9	7	20	
99	1	2	2	4	28	11	20	15	
	2	3	2	4	25	10	18	14	
	3	4	2	4	24	9	16	12	
	4	5	2	3	24	9	14	12	
	5	8	2	3	21	8	13	9	
	6	12	2	2	20	7	11	8	
	7	19	2	2	20	6	10	7	
	8	28	2	1	18	5	9	6	
	9	29	2	1	18	5	6	6	
100	1	6	4	3	20	19	28	23	
	2	7	3	3	17	18	26	21	
	3	10	3	3	16	17	24	18	
	4	16	3	3	15	16	21	17	
	5	20	3	3	14	15	20	16	
	6	22	2	3	13	15	16	15	
	7	23	2	3	13	15	14	12	
	8	24	2	3	11	14	13	12	
	9	30	2	3	10	13	11	9	
101	1	10	4	2	25	2	6	12	
	2	11	3	2	23	2	6	11	
	3	15	3	2	22	2	6	11	
	4	16	2	2	20	2	6	10	
	5	17	2	2	18	2	6	9	
	6	18	2	2	18	2	5	9	
	7	21	2	2	16	2	5	9	
	8	22	1	2	13	2	5	8	
	9	23	1	2	11	2	5	8	
102	1	0	0	0	0	0	0	0	
************************************************************************

 RESOURCE AVAILABILITIES 
	R 1	R 2	N 1	N 2	N 3	N 4
	53	52	1259	1358	1331	1234

************************************************************************
